unsat
(define-fun f ((x (_ BitVec 32))) (_ BitVec 32) (bvxor x (bvsub x #b00000000000000000000000000000001)))
0.26user 0.01system 0:00.27elapsed 99%CPU (0avgtext+0avgdata 31300maxresident)k
0inputs+8outputs (0major+2408minor)pagefaults 0swaps
